100
32
14
26
1
12
7
11
12
6
1
19
23
4
4
17
1
13
18
3
29
7
16
18
3
17
1
21
25
26
3
2
22
7
26
11
17
2
23
13
6
15
6
26
16
19
5
2
6
1
20
11
21
10
8
24
11
21
15
6
15
7
22
16
23
13
3
2
18
6
2
17
16
1
19
21
24
5
4
13
3
27
19
8
12
1
4
20
3
12
15
18
1
1
2
6
19
6
13
14
1
15